; PUSH cw_1 SWAP2 SWAP1 MLOAD SWAP1 => MLOAD PUSH cw_1 SWAP2
(set-option :produce-proofs true)
; 
(set-info :status unknown)
(declare-fun storage_t ((_ BitVec 256) (_ BitVec 256) (_ BitVec 256) (_ BitVec 256) Int (_ BitVec 256)) (_ BitVec 256))
(declare-fun w_1 () (_ BitVec 256))
(declare-fun storage_s ((_ BitVec 256) (_ BitVec 256) (_ BitVec 256) (_ BitVec 256) Int (_ BitVec 256)) (_ BitVec 256))
(declare-fun exc_halt_t (Int) Bool)
(declare-fun exc_halt_s (Int) Bool)
(declare-fun stack_t ((_ BitVec 256) (_ BitVec 256) (_ BitVec 256) (_ BitVec 256) Int (_ BitVec 6)) (_ BitVec 256))
(declare-fun stack_s ((_ BitVec 256) (_ BitVec 256) (_ BitVec 256) (_ BitVec 256) Int (_ BitVec 6)) (_ BitVec 256))
(declare-fun sc_t (Int) (_ BitVec 6))
(declare-fun sc_s (Int) (_ BitVec 6))
(declare-fun used_gas_t ((_ BitVec 256) (_ BitVec 256) (_ BitVec 256) (_ BitVec 256) Int) Int)
(declare-fun used_gas_s ((_ BitVec 256) (_ BitVec 256) (_ BitVec 256) (_ BitVec 256) Int) Int)
(declare-fun f_MLOAD ((_ BitVec 256) (_ BitVec 256) (_ BitVec 256) (_ BitVec 256) (_ BitVec 256)) (_ BitVec 256))
(assert
 (exists ((x_0 (_ BitVec 256)) (x_1 (_ BitVec 256)) (x_MLOAD_0 (_ BitVec 256)) )(let (($x8851 (forall ((w (_ BitVec 256)) )(let ((?x6003 (storage_t x_0 x_1 w_1 x_MLOAD_0 3 w)))
 (let ((?x10520 (storage_s x_0 x_1 w_1 x_MLOAD_0 5 w)))
 (= ?x10520 ?x6003))))
 ))
 (let (($x3666 (exc_halt_t 3)))
 (let (($x3979 (exc_halt_s 5)))
 (let (($x10851 (= $x3979 $x3666)))
 (let (($x5678 (forall ((n (_ BitVec 6)) )(let ((?x7126 (stack_t x_0 x_1 w_1 x_MLOAD_0 3 n)))
 (let ((?x6228 (stack_s x_0 x_1 w_1 x_MLOAD_0 5 n)))
 (let (($x7279 (= ?x6228 ?x7126)))
 (let ((?x9769 (sc_t 3)))
 (let (($x1584 (bvsle ?x9769 n)))
 (or $x1584 $x7279)))))))
 ))
 (let ((?x9769 (sc_t 3)))
 (let ((?x805 (sc_s 5)))
 (let (($x7113 (= ?x805 ?x9769)))
 (let ((?x11579 (used_gas_t x_0 x_1 w_1 x_MLOAD_0 0)))
 (let ((?x5829 (used_gas_s x_0 x_1 w_1 x_MLOAD_0 0)))
 (let (($x1081 (= ?x5829 ?x11579)))
 (let (($x10617 (forall ((w (_ BitVec 256)) )(let ((?x398 (storage_t x_0 x_1 w_1 x_MLOAD_0 0 w)))
 (let ((?x8997 (storage_s x_0 x_1 w_1 x_MLOAD_0 0 w)))
 (= ?x8997 ?x398))))
 ))
 (let (($x56 (exc_halt_t 0)))
 (let (($x57 (exc_halt_s 0)))
 (let (($x58 (= $x57 $x56)))
 (let (($x5453 (forall ((n (_ BitVec 6)) )(let ((?x63 (sc_t 0)))
 (let (($x11226 (bvsle ?x63 n)))
 (let ((?x3217 (stack_t x_0 x_1 w_1 x_MLOAD_0 0 n)))
 (let ((?x5388 (stack_s x_0 x_1 w_1 x_MLOAD_0 0 n)))
 (let (($x9645 (= ?x5388 ?x3217)))
 (or $x9645 $x11226)))))))
 ))
 (let ((?x63 (sc_t 0)))
 (let ((?x72 (sc_s 0)))
 (let (($x73 (= ?x72 ?x63)))
 (let (($x10095 (= $x3666 (or (exc_halt_t 2) (not (bvsle (_ bv0 6) (bvadd (_ bv61 6) (sc_t 2))))))))
 (let (($x8818 (forall ((w (_ BitVec 256)) )(let ((?x2279 (storage_t x_0 x_1 w_1 x_MLOAD_0 2 w)))
 (let ((?x6003 (storage_t x_0 x_1 w_1 x_MLOAD_0 3 w)))
 (= ?x6003 ?x2279))))
 ))
 (let (($x1491 (forall ((n (_ BitVec 6)) )(let ((?x7901 (stack_t x_0 x_1 w_1 x_MLOAD_0 2 n)))
 (let ((?x7126 (stack_t x_0 x_1 w_1 x_MLOAD_0 3 n)))
 (let ((?x2714 (sc_t 2)))
 (let ((?x8215 (bvadd (_ bv61 6) ?x2714)))
 (let (($x210 (bvsle ?x8215 n)))
 (or $x210 (= ?x7126 ?x7901))))))))
 ))
 (let ((?x2714 (sc_t 2)))
 (let (($x163 (= ?x9769 ?x2714)))
 (let (($x2177 (= (used_gas_t x_0 x_1 w_1 x_MLOAD_0 3) (+ 3 (used_gas_t x_0 x_1 w_1 x_MLOAD_0 2)))))
 (let (($x2125 (= (stack_t x_0 x_1 w_1 x_MLOAD_0 3 (bvadd (_ bv62 6) ?x9769)) (stack_t x_0 x_1 w_1 x_MLOAD_0 2 (bvadd (_ bv62 6) ?x2714)))))
 (let (($x10690 (= (stack_t x_0 x_1 w_1 x_MLOAD_0 3 (bvadd (_ bv61 6) ?x9769)) (stack_t x_0 x_1 w_1 x_MLOAD_0 2 (bvadd (_ bv63 6) ?x2714)))))
 (let (($x5279 (= (stack_t x_0 x_1 w_1 x_MLOAD_0 3 (bvadd (_ bv63 6) ?x9769)) (stack_t x_0 x_1 w_1 x_MLOAD_0 2 (bvadd (_ bv61 6) ?x2714)))))
 (let (($x10909 (not (= ((_ extract 6 6) (bvadd (_ bv1 7) (concat (_ bv0 1) (sc_t 1)))) (_ bv0 1)))))
 (let (($x7814 (exc_halt_t 1)))
 (let (($x5252 (exc_halt_t 2)))
 (let (($x11364 (= $x5252 (or $x7814 $x10909))))
 (let (($x10509 (forall ((w (_ BitVec 256)) )(let ((?x4891 (storage_t x_0 x_1 w_1 x_MLOAD_0 1 w)))
 (let ((?x2279 (storage_t x_0 x_1 w_1 x_MLOAD_0 2 w)))
 (= ?x2279 ?x4891))))
 ))
 (let (($x880 (forall ((n (_ BitVec 6)) )(let ((?x4513 (sc_t 1)))
 (let (($x8825 (bvsle ?x4513 n)))
 (let ((?x3968 (stack_t x_0 x_1 w_1 x_MLOAD_0 1 n)))
 (let ((?x7901 (stack_t x_0 x_1 w_1 x_MLOAD_0 2 n)))
 (or (= ?x7901 ?x3968) $x8825))))))
 ))
 (let (($x1829 (= ?x2714 (bvadd (_ bv1 6) (sc_t 1)))))
 (let ((?x2301 (used_gas_t x_0 x_1 w_1 x_MLOAD_0 2)))
 (let (($x10680 (= $x7814 (or $x56 (not (bvsle (_ bv0 6) (bvadd (_ bv63 6) ?x63)))))))
 (let (($x5466 (forall ((w (_ BitVec 256)) )(let ((?x398 (storage_t x_0 x_1 w_1 x_MLOAD_0 0 w)))
 (let ((?x4891 (storage_t x_0 x_1 w_1 x_MLOAD_0 1 w)))
 (= ?x4891 ?x398))))
 ))
 (let (($x6338 (forall ((n (_ BitVec 6)) )(let ((?x3217 (stack_t x_0 x_1 w_1 x_MLOAD_0 0 n)))
 (let ((?x3968 (stack_t x_0 x_1 w_1 x_MLOAD_0 1 n)))
 (let ((?x63 (sc_t 0)))
 (let ((?x11493 (bvadd (_ bv63 6) ?x63)))
 (let (($x1967 (bvsle ?x11493 n)))
 (or $x1967 (= ?x3968 ?x3217))))))))
 ))
 (let ((?x4513 (sc_t 1)))
 (let (($x4111 (= ?x4513 ?x63)))
 (let ((?x2853 (f_MLOAD x_0 x_1 w_1 x_MLOAD_0 (stack_t x_0 x_1 w_1 x_MLOAD_0 0 (bvadd (_ bv63 6) ?x63)))))
 (let (($x6077 (= $x3979 (or (exc_halt_s 4) (not (bvsle (_ bv0 6) (bvadd (_ bv62 6) (sc_s 4))))))))
 (let (($x5522 (forall ((w (_ BitVec 256)) )(let ((?x10579 (storage_s x_0 x_1 w_1 x_MLOAD_0 4 w)))
 (let ((?x10520 (storage_s x_0 x_1 w_1 x_MLOAD_0 5 w)))
 (= ?x10520 ?x10579))))
 ))
 (let (($x4498 (forall ((n (_ BitVec 6)) )(let ((?x4305 (sc_s 4)))
 (let ((?x4102 (bvadd (_ bv62 6) ?x4305)))
 (let (($x11250 (bvsle ?x4102 n)))
 (let ((?x5502 (stack_s x_0 x_1 w_1 x_MLOAD_0 4 n)))
 (let ((?x6228 (stack_s x_0 x_1 w_1 x_MLOAD_0 5 n)))
 (or (= ?x6228 ?x5502) $x11250)))))))
 ))
 (let ((?x4305 (sc_s 4)))
 (let (($x4390 (= ?x805 ?x4305)))
 (let (($x11709 (= (used_gas_s x_0 x_1 w_1 x_MLOAD_0 5) (+ 3 (used_gas_s x_0 x_1 w_1 x_MLOAD_0 4)))))
 (let ((?x194 (bvadd (_ bv63 6) ?x4305)))
 (let ((?x11415 (stack_s x_0 x_1 w_1 x_MLOAD_0 4 ?x194)))
 (let (($x5796 (= (stack_s x_0 x_1 w_1 x_MLOAD_0 5 (bvadd (_ bv63 6) ?x805)) (stack_s x_0 x_1 w_1 x_MLOAD_0 4 (bvadd (_ bv62 6) ?x4305)))))
 (let (($x7172 (exc_halt_s 4)))
 (let (($x565 (= $x7172 (or (exc_halt_s 3) (not (bvsle (_ bv0 6) (bvadd (_ bv63 6) (sc_s 3))))))))
 (let (($x2186 (forall ((w (_ BitVec 256)) )(let ((?x4297 (storage_s x_0 x_1 w_1 x_MLOAD_0 3 w)))
 (let ((?x10579 (storage_s x_0 x_1 w_1 x_MLOAD_0 4 w)))
 (= ?x10579 ?x4297))))
 ))
 (let (($x6027 (forall ((n (_ BitVec 6)) )(let ((?x2130 (stack_s x_0 x_1 w_1 x_MLOAD_0 3 n)))
 (let ((?x5502 (stack_s x_0 x_1 w_1 x_MLOAD_0 4 n)))
 (let ((?x275 (sc_s 3)))
 (let ((?x4842 (bvadd (_ bv63 6) ?x275)))
 (let (($x1966 (bvsle ?x4842 n)))
 (or $x1966 (= ?x5502 ?x2130))))))))
 ))
 (let ((?x275 (sc_s 3)))
 (let (($x10403 (= ?x4305 ?x275)))
 (let ((?x724 (used_gas_s x_0 x_1 w_1 x_MLOAD_0 4)))
 (let ((?x4842 (bvadd (_ bv63 6) ?x275)))
 (let ((?x5947 (stack_s x_0 x_1 w_1 x_MLOAD_0 3 ?x4842)))
 (let (($x292 (exc_halt_s 3)))
 (let (($x1454 (= $x292 (or (exc_halt_s 2) (not (bvsle (_ bv0 6) (bvadd (_ bv62 6) (sc_s 2))))))))
 (let (($x11418 (forall ((w (_ BitVec 256)) )(let ((?x10286 (storage_s x_0 x_1 w_1 x_MLOAD_0 2 w)))
 (let ((?x4297 (storage_s x_0 x_1 w_1 x_MLOAD_0 3 w)))
 (= ?x4297 ?x10286))))
 ))
 (let (($x4571 (forall ((n (_ BitVec 6)) )(let ((?x11458 (stack_s x_0 x_1 w_1 x_MLOAD_0 2 n)))
 (let ((?x2130 (stack_s x_0 x_1 w_1 x_MLOAD_0 3 n)))
 (let ((?x218 (sc_s 2)))
 (let ((?x1890 (bvadd (_ bv62 6) ?x218)))
 (let (($x6718 (bvsle ?x1890 n)))
 (or $x6718 (= ?x2130 ?x11458))))))))
 ))
 (let ((?x218 (sc_s 2)))
 (let (($x3339 (= ?x275 ?x218)))
 (let ((?x6947 (used_gas_s x_0 x_1 w_1 x_MLOAD_0 3)))
 (let ((?x9933 (bvadd (_ bv63 6) ?x218)))
 (let ((?x10980 (stack_s x_0 x_1 w_1 x_MLOAD_0 2 ?x9933)))
 (let (($x247 (exc_halt_s 2)))
 (let (($x8849 (= $x247 (or (exc_halt_s 1) (not (bvsle (_ bv0 6) (bvadd (_ bv61 6) (sc_s 1))))))))
 (let (($x11633 (forall ((w (_ BitVec 256)) )(let ((?x4757 (storage_s x_0 x_1 w_1 x_MLOAD_0 1 w)))
 (let ((?x10286 (storage_s x_0 x_1 w_1 x_MLOAD_0 2 w)))
 (= ?x10286 ?x4757))))
 ))
 (let (($x11632 (forall ((n (_ BitVec 6)) )(let ((?x154 (sc_s 1)))
 (let ((?x11111 (bvadd (_ bv61 6) ?x154)))
 (let (($x9021 (bvsle ?x11111 n)))
 (let ((?x4815 (stack_s x_0 x_1 w_1 x_MLOAD_0 1 n)))
 (let ((?x11458 (stack_s x_0 x_1 w_1 x_MLOAD_0 2 n)))
 (or (= ?x11458 ?x4815) $x9021)))))))
 ))
 (let ((?x154 (sc_s 1)))
 (let (($x3763 (= ?x218 ?x154)))
 (let ((?x1860 (used_gas_s x_0 x_1 w_1 x_MLOAD_0 2)))
 (let ((?x1890 (bvadd (_ bv62 6) ?x218)))
 (let ((?x5537 (stack_s x_0 x_1 w_1 x_MLOAD_0 2 ?x1890)))
 (let (($x5450 (= (stack_s x_0 x_1 w_1 x_MLOAD_0 2 (bvadd (_ bv61 6) ?x218)) (stack_s x_0 x_1 w_1 x_MLOAD_0 1 (bvadd (_ bv63 6) ?x154)))))
 (let (($x189 (exc_halt_s 1)))
 (let (($x10738 (= $x189 (or $x57 (not (= ((_ extract 6 6) (bvadd (_ bv1 7) (concat (_ bv0 1) ?x72))) (_ bv0 1)))))))
 (let (($x107 (forall ((w (_ BitVec 256)) )(let ((?x8997 (storage_s x_0 x_1 w_1 x_MLOAD_0 0 w)))
 (let ((?x4757 (storage_s x_0 x_1 w_1 x_MLOAD_0 1 w)))
 (= ?x4757 ?x8997))))
 ))
 (let (($x10935 (forall ((n (_ BitVec 6)) )(let ((?x5388 (stack_s x_0 x_1 w_1 x_MLOAD_0 0 n)))
 (let ((?x4815 (stack_s x_0 x_1 w_1 x_MLOAD_0 1 n)))
 (let ((?x72 (sc_s 0)))
 (let (($x2251 (bvsle ?x72 n)))
 (or $x2251 (= ?x4815 ?x5388)))))))
 ))
 (let (($x4893 (= ?x154 (bvadd (_ bv1 6) ?x72))))
 (let (($x4593 (forall ((w0 (_ BitVec 256)) )(let (($x4195 (= (stack_s x_0 x_1 w_1 x_MLOAD_0 3 (bvadd (_ bv63 6) (sc_s 3))) w0)))
 (let ((?x136 (f_MLOAD x_0 x_1 w_1 x_MLOAD_0 w0)))
 (= ?x136 (ite $x4195 x_MLOAD_0 (_ bv0 256))))))
 ))
 (let (($x7829 (forall ((w (_ BitVec 256)) )(let ((?x8997 (storage_s x_0 x_1 w_1 x_MLOAD_0 0 w)))
 (= ?x8997 (_ bv0 256))))
 ))
 (let (($x7468 (= ?x5829 0)))
 (let (($x7049 (not $x57)))
 (let (($x3157 (= (stack_s x_0 x_1 w_1 x_MLOAD_0 0 (_ bv1 6)) x_1)))
 (let (($x6259 (= (stack_s x_0 x_1 w_1 x_MLOAD_0 0 (_ bv0 6)) x_0)))
 (let (($x1311 (= ?x72 (_ bv2 6))))
 (and $x1311 $x6259 $x3157 $x7049 $x7468 $x7829 $x4593 (= (stack_s x_0 x_1 w_1 x_MLOAD_0 1 ?x72) w_1) (= (used_gas_s x_0 x_1 w_1 x_MLOAD_0 1) (+ 3 ?x5829)) $x4893 $x10935 $x107 $x10738 (= ?x10980 (stack_s x_0 x_1 w_1 x_MLOAD_0 1 (bvadd (_ bv61 6) ?x154))) $x5450 (= ?x5537 (stack_s x_0 x_1 w_1 x_MLOAD_0 1 (bvadd (_ bv62 6) ?x154))) (= ?x1860 (+ 3 (used_gas_s x_0 x_1 w_1 x_MLOAD_0 1))) $x3763 $x11632 $x11633 $x8849 (= ?x5947 ?x5537) (= (stack_s x_0 x_1 w_1 x_MLOAD_0 3 (bvadd (_ bv62 6) ?x275)) ?x10980) (= ?x6947 (+ 3 ?x1860)) $x3339 $x4571 $x11418 $x1454 (= ?x11415 (f_MLOAD x_0 x_1 w_1 x_MLOAD_0 ?x5947)) (= ?x724 (+ 3 ?x6947)) $x10403 $x6027 $x2186 $x565 $x5796 (= (stack_s x_0 x_1 w_1 x_MLOAD_0 5 (bvadd (_ bv62 6) ?x805)) ?x11415) $x11709 $x4390 $x4498 $x5522 $x6077 (= (stack_t x_0 x_1 w_1 x_MLOAD_0 1 (bvadd (_ bv63 6) ?x4513)) ?x2853) (= (used_gas_t x_0 x_1 w_1 x_MLOAD_0 1) (+ 3 ?x11579)) $x4111 $x6338 $x5466 $x10680 (= (stack_t x_0 x_1 w_1 x_MLOAD_0 2 ?x4513) w_1) (= ?x2301 (+ 3 (used_gas_t x_0 x_1 w_1 x_MLOAD_0 1))) $x1829 $x880 $x10509 $x11364 $x5279 $x10690 $x2125 $x2177 $x163 $x1491 $x8818 $x10095 $x73 $x5453 $x58 $x10617 $x1081 (not (and $x7113 $x5678 $x10851 $x8851)))))))))))))))))))))))))))))))))))))))))))))))))))))))))))))))))))))))))))))))))))))))))))))))
 )
(check-sat)
(get-proof)
